\ENCODING=ISO-8859-1
\Problem name: IloCplex

Minimize
 #0: - 1000000 x31 - 1000000 x32 - 1000000 x33 - 1000000 x34 - 1000000 x35 + 1
Subject To
 c1: 3 x1 + 4 x2 + 6 x3 + 8 x4 + 9 x5 <= 10
 c2: 3 x6 + 4 x7 + 6 x8 + 8 x9 + 9 x10 <= 10
 c3: 3 x11 + 4 x12 + 6 x13 + 8 x14 + 9 x15 <= 10
 c4: 3 x16 + 4 x17 + 6 x18 + 8 x19 + 9 x20 <= 10
 c5: 3 x21 + 4 x22 + 6 x23 + 8 x24 + 9 x25 <= 10
 c6: 3 x26 + 4 x27 + 6 x28 + 8 x29 + 9 x30 <= 10
 c7: 3 x31 + 4 x32 + 6 x33 + 8 x34 + 9 x35 <= 10
 c8: x31 + x32 <= 1
Bounds
 0 <= x1 <= 1
 0 <= x2 <= 1
 0 <= x3 <= 1
 0 <= x4 <= 1
 0 <= x5 <= 1
 0 <= x6 <= 1
 0 <= x7 <= 1
 0 <= x8 <= 1
 0 <= x9 <= 1
 0 <= x10 <= 1
 0 <= x11 <= 1
 0 <= x12 <= 1
 0 <= x13 <= 1
 0 <= x14 <= 1
 0 <= x15 <= 1
 0 <= x16 <= 1
 0 <= x17 <= 1
 0 <= x18 <= 1
 0 <= x19 <= 1
 0 <= x20 <= 1
 0 <= x21 <= 1
 0 <= x22 <= 1
 0 <= x23 <= 1
 0 <= x24 <= 1
 0 <= x25 <= 1
 0 <= x26 <= 1
 0 <= x27 <= 1
 0 <= x28 <= 1
 0 <= x29 <= 1
 0 <= x30 <= 1
 0 <= x31 <= 1
 0 <= x32 <= 1
 0 <= x33 <= 1
 0 <= x34 <= 1
 0 <= x35 <= 1
Binaries
 x1  x2  x3  x4  x5  x6  x7  x8  x9  x10  x11  x12  x13  x14  x15  x16  x17 
 x18  x19  x20  x21  x22  x23  x24  x25  x26  x27  x28  x29  x30  x31  x32 
 x33  x34  x35 
End
